NAME: synthetic_20_3.vrp
COMMENT: Synthetic VRP instance with 20 customers, 3 vehicles
TYPE: CVRP
DIMENSION: 21
EDGE_WEIGHT_TYPE: EUC_2D
CAPACITY: 100
NODE_COORD_SECTION
1 0 0
2 81 14
3 3 94
4 35 31
5 28 17
6 94 13
7 86 94
8 69 11
9 75 54
10 4 3
11 11 27
12 29 64
13 77 3
14 71 25
15 91 83
16 89 69
17 53 28
18 57 75
19 35 0
20 97 20
21 89 54
DEMAND_SECTION
1 0
2 11
3 9
4 5
5 7
6 25
7 11
8 4
9 3
10 13
11 4
12 12
13 28
14 12
15 20
16 9
17 26
18 2
19 24
20 15
21 18
DEPOT_SECTION
1
-1
EOF
